p cnf 256 1
256 0
w 1 0.3176
w 2 1 1
w 2 -1 0
w 3 2 0.673748
w 3 -2 0.711262
w 4 3 0.28312
w 4 -3 0.429311
w 5 4 0.251484
w 5 -4 0.715902
w 6 5 0.101372
w 6 -5 0.243269
w 7 6 1
w 7 -6 0
w 8 7 1
w 8 -7 0
w 9 8 0.655748
w 9 -8 0.227226
w 10 9 0
w 10 -9 1
w 11 10 1
w 11 -10 0
w 12 11 0.939963
w 12 -11 0.103285
w 13 12 0
w 13 -12 1
w 14 13 0
w 14 -13 1
w 15 14 0
w 15 -14 1
w 16 15 0.834447
w 16 -15 0.933324
w 17 1 0
w 17 -1 1
w 18 17 2 0.497707
w 18 17 -2 0.97966
w 18 -17 2 0.526321
w 18 -17 -2 0.599079
w 19 18 3 0
w 19 18 -3 0
w 19 -18 3 0
w 19 -18 -3 1
w 20 19 4 0
w 20 19 -4 0
w 20 -19 4 1
w 20 -19 -4 0
w 21 20 5 0
w 21 20 -5 1
w 21 -20 5 1
w 21 -20 -5 1
w 22 21 6 0.47295
w 22 21 -6 0.55613
w 22 -21 6 0.982977
w 22 -21 -6 0.596135
w 23 22 7 0.94608
w 23 22 -7 0.430582
w 23 -22 7 0.485303
w 23 -22 -7 0.192302
w 24 23 8 0.191037
w 24 23 -8 0.690009
w 24 -23 8 0.674
w 24 -23 -8 0.717358
w 25 24 9 0
w 25 24 -9 0
w 25 -24 9 1
w 25 -24 -9 0
w 26 25 10 1
w 26 25 -10 1
w 26 -25 10 0
w 26 -25 -10 0
w 27 26 11 1
w 27 26 -11 0
w 27 -26 11 0
w 27 -26 -11 0
w 28 27 12 0.400375
w 28 27 -12 0.489158
w 28 -27 12 0.136238
w 28 -27 -12 0.383352
w 29 28 13 0
w 29 28 -13 1
w 29 -28 13 1
w 29 -28 -13 0
w 30 29 14 0.210215
w 30 29 -14 0.364557
w 30 -29 14 0.211743
w 30 -29 -14 0.884215
w 31 30 15 0
w 31 30 -15 0
w 31 -30 15 1
w 31 -30 -15 0
w 32 31 16 0
w 32 31 -16 1
w 32 -31 16 1
w 32 -31 -16 0
w 33 17 1
w 33 -17 0
w 34 33 18 1
w 34 33 -18 1
w 34 -33 18 0
w 34 -33 -18 1
w 35 34 19 0.172669
w 35 34 -19 0.690621
w 35 -34 19 0.996246
w 35 -34 -19 0.860886
w 36 35 20 1
w 36 35 -20 0
w 36 -35 20 0
w 36 -35 -20 0
w 37 36 21 1
w 37 36 -21 0
w 37 -36 21 1
w 37 -36 -21 0
w 38 37 22 0
w 38 37 -22 0
w 38 -37 22 0
w 38 -37 -22 1
w 39 38 23 0.0031975
w 39 38 -23 0.320397
w 39 -38 23 0.724952
w 39 -38 -23 0.408785
w 40 39 24 0.631846
w 40 39 -24 0.830579
w 40 -39 24 0.813152
w 40 -39 -24 0.939114
w 41 40 25 0.985821
w 41 40 -25 0.629735
w 41 -40 25 0.737778
w 41 -40 -25 0.846707
w 42 41 26 0.249899
w 42 41 -26 0.881112
w 42 -41 26 0.191573
w 42 -41 -26 0.972235
w 43 42 27 0
w 43 42 -27 0
w 43 -42 27 1
w 43 -42 -27 0
w 44 43 28 0.765598
w 44 43 -28 0.909838
w 44 -43 28 0.589323
w 44 -43 -28 0.335426
w 45 44 29 1
w 45 44 -29 1
w 45 -44 29 1
w 45 -44 -29 0
w 46 45 30 0.315891
w 46 45 -30 0.470933
w 46 -45 30 0.577987
w 46 -45 -30 0.129042
w 47 46 31 0
w 47 46 -31 1
w 47 -46 31 0
w 47 -46 -31 1
w 48 47 32 0.68957
w 48 47 -32 0.307195
w 48 -47 32 0.842682
w 48 -47 -32 0.881143
w 49 33 0
w 49 -33 1
w 50 49 34 0.858217
w 50 49 -34 0.883708
w 50 -49 34 0.025704
w 50 -49 -34 0.824699
w 51 50 35 0.935542
w 51 50 -35 0.414022
w 51 -50 35 0.984732
w 51 -50 -35 0.154315
w 52 51 36 0.323355
w 52 51 -36 0.693486
w 52 -51 36 0.367245
w 52 -51 -36 0.0707633
w 53 52 37 1
w 53 52 -37 1
w 53 -52 37 1
w 53 -52 -37 0
w 54 53 38 0.253282
w 54 53 -38 0.288008
w 54 -53 38 0.0255667
w 54 -53 -38 0.214852
w 55 54 39 0.332762
w 55 54 -39 0.0575344
w 55 -54 39 0.858721
w 55 -54 -39 0.612192
w 56 55 40 1
w 56 55 -40 1
w 56 -55 40 0
w 56 -55 -40 0
w 57 56 41 1
w 57 56 -41 1
w 57 -56 41 0
w 57 -56 -41 0
w 58 57 42 0.237288
w 58 57 -42 0.0213926
w 58 -57 42 0.494012
w 58 -57 -42 0.604533
w 59 58 43 0
w 59 58 -43 1
w 59 -58 43 0
w 59 -58 -43 1
w 60 59 44 0.709177
w 60 59 -44 0.895088
w 60 -59 44 0.978945
w 60 -59 -44 0.734743
w 61 60 45 0
w 61 60 -45 1
w 61 -60 45 0
w 61 -60 -45 1
w 62 61 46 0.347766
w 62 61 -46 0.500208
w 62 -61 46 0.150107
w 62 -61 -46 0.411765
w 63 62 47 1
w 63 62 -47 0
w 63 -62 47 0
w 63 -62 -47 1
w 64 63 48 0.657613
w 64 63 -48 0.391636
w 64 -63 48 0.8445
w 64 -63 -48 0.151625
w 65 49 0.936656
w 65 -49 0.655013
w 66 65 50 0
w 66 65 -50 1
w 66 -65 50 1
w 66 -65 -50 0
w 67 66 51 0
w 67 66 -51 1
w 67 -66 51 0
w 67 -66 -51 1
w 68 67 52 1
w 68 67 -52 0
w 68 -67 52 0
w 68 -67 -52 0
w 69 68 53 1
w 69 68 -53 1
w 69 -68 53 1
w 69 -68 -53 0
w 70 69 54 0
w 70 69 -54 1
w 70 -69 54 1
w 70 -69 -54 0
w 71 70 55 1
w 71 70 -55 0
w 71 -70 55 1
w 71 -70 -55 0
w 72 71 56 0.445039
w 72 71 -56 0.63575
w 72 -71 56 0.209771
w 72 -71 -56 0.574855
w 73 72 57 0
w 73 72 -57 1
w 73 -72 57 1
w 73 -72 -57 1
w 74 73 58 1
w 74 73 -58 0
w 74 -73 58 0
w 74 -73 -58 0
w 75 74 59 1
w 75 74 -59 0
w 75 -74 59 0
w 75 -74 -59 0
w 76 75 60 0
w 76 75 -60 1
w 76 -75 60 0
w 76 -75 -60 1
w 77 76 61 0.414726
w 77 76 -61 0.318954
w 77 -76 61 0.729464
w 77 -76 -61 0.327677
w 78 77 62 0.365214
w 78 77 -62 0.537448
w 78 -77 62 0.338849
w 78 -77 -62 0.387704
w 79 78 63 0.0224644
w 79 78 -63 0.531675
w 79 -78 63 0.642653
w 79 -78 -63 0.771364
w 80 79 64 0.815502
w 80 79 -64 0.400791
w 80 -79 64 0.0662801
w 80 -79 -64 0.80544
w 81 65 0
w 81 -65 1
w 82 81 66 0
w 82 81 -66 0
w 82 -81 66 1
w 82 -81 -66 0
w 83 82 67 1
w 83 82 -67 0
w 83 -82 67 0
w 83 -82 -67 1
w 84 83 68 0.905715
w 84 83 -68 0.847433
w 84 -83 68 0.962392
w 84 -83 -68 0.669708
w 85 84 69 0
w 85 84 -69 1
w 85 -84 69 0
w 85 -84 -69 1
w 86 85 70 1
w 86 85 -70 1
w 86 -85 70 0
w 86 -85 -70 1
w 87 86 71 0.203176
w 87 86 -71 0.0629419
w 87 -86 71 0.702563
w 87 -86 -71 0.614128
w 88 87 72 1
w 88 87 -72 0
w 88 -87 72 1
w 88 -87 -72 0
w 89 88 73 0.594791
w 89 88 -73 0.670433
w 89 -88 73 0.910045
w 89 -88 -73 0.181552
w 90 89 74 0.54476
w 90 89 -74 0.0872669
w 90 -89 74 0.635836
w 90 -89 -74 0.507153
w 91 90 75 0.848484
w 91 90 -75 0.00699335
w 91 -90 75 0.765532
w 91 -90 -75 0.448835
w 92 91 76 0
w 92 91 -76 1
w 92 -91 76 1
w 92 -91 -76 1
w 93 92 77 0.424705
w 93 92 -77 0.802113
w 93 -92 77 0.640466
w 93 -92 -77 0.127268
w 94 93 78 0
w 94 93 -78 0
w 94 -93 78 1
w 94 -93 -78 1
w 95 94 79 1
w 95 94 -79 1
w 95 -94 79 0
w 95 -94 -79 1
w 96 95 80 1
w 96 95 -80 1
w 96 -95 80 0
w 96 -95 -80 1
w 97 81 0.931535
w 97 -81 0.12096
w 98 97 82 0.697067
w 98 97 -82 0.569795
w 98 -97 82 0.148065
w 98 -97 -82 0.493619
w 99 98 83 1
w 99 98 -83 1
w 99 -98 83 1
w 99 -98 -83 0
w 100 99 84 0.368647
w 100 99 -84 0.22762
w 100 -99 84 0.310912
w 100 -99 -84 0.358772
w 101 100 85 0
w 101 100 -85 1
w 101 -100 85 1
w 101 -100 -85 1
w 102 101 86 0.107726
w 102 101 -86 0.730359
w 102 -101 86 0.662756
w 102 -101 -86 0.744366
w 103 102 87 0.837316
w 103 102 -87 0.0168425
w 103 -102 87 0.613429
w 103 -102 -87 0.768851
w 104 103 88 0
w 104 103 -88 1
w 104 -103 88 1
w 104 -103 -88 0
w 105 104 89 0.858256
w 105 104 -89 0.139245
w 105 -104 89 0.0520947
w 105 -104 -89 0.586437
w 106 105 90 0
w 106 105 -90 1
w 106 -105 90 0
w 106 -105 -90 1
w 107 106 91 0
w 107 106 -91 1
w 107 -106 91 0
w 107 -106 -91 0
w 108 107 92 0.916113
w 108 107 -92 0.429206
w 108 -107 92 0.221796
w 108 -107 -92 0.660479
w 109 108 93 1
w 109 108 -93 0
w 109 -108 93 0
w 109 -108 -93 0
w 110 109 94 0.276486
w 110 109 -94 0.293882
w 110 -109 94 0.522722
w 110 -109 -94 0.740084
w 111 110 95 0
w 111 110 -95 0
w 111 -110 95 1
w 111 -110 -95 1
w 112 111 96 1
w 112 111 -96 0
w 112 -111 96 0
w 112 -111 -96 1
w 113 97 1
w 113 -97 0
w 114 113 98 1
w 114 113 -98 1
w 114 -113 98 0
w 114 -113 -98 1
w 115 114 99 0.249694
w 115 114 -99 0.000767315
w 115 -114 99 0.520021
w 115 -114 -99 0.597218
w 116 115 100 0
w 116 115 -100 0
w 116 -115 100 0
w 116 -115 -100 1
w 117 116 101 0.181725
w 117 116 -101 0.535189
w 117 -116 101 0.57474
w 117 -116 -101 0.435144
w 118 117 102 0.454069
w 118 117 -102 0.740658
w 118 -117 102 0.883582
w 118 -117 -102 0.572995
w 119 118 103 0.80608
w 119 118 -103 0.159137
w 119 -118 103 0.502893
w 119 -118 -103 0.0424333
w 120 119 104 1
w 120 119 -104 1
w 120 -119 104 1
w 120 -119 -104 0
w 121 120 105 0
w 121 120 -105 0
w 121 -120 105 1
w 121 -120 -105 1
w 122 121 106 1
w 122 121 -106 0
w 122 -121 106 1
w 122 -121 -106 1
w 123 122 107 0.17155
w 123 122 -107 0.362171
w 123 -122 107 0.259499
w 123 -122 -107 0.606695
w 124 123 108 1
w 124 123 -108 0
w 124 -123 108 0
w 124 -123 -108 0
w 125 124 109 1
w 125 124 -109 1
w 125 -124 109 0
w 125 -124 -109 0
w 126 125 110 0.467717
w 126 125 -110 0.272797
w 126 -125 110 0.977488
w 126 -125 -110 0.91274
w 127 126 111 0
w 127 126 -111 0
w 127 -126 111 0
w 127 -126 -111 1
w 128 127 112 0.458216
w 128 127 -112 0.506326
w 128 -127 112 0.749495
w 128 -127 -112 0.448042
w 129 113 1
w 129 -113 0
w 130 129 114 0.695478
w 130 129 -114 0.693754
w 130 -129 114 0.226287
w 130 -129 -114 0.973816
w 131 130 115 0
w 131 130 -115 0
w 131 -130 115 1
w 131 -130 -115 0
w 132 131 116 0
w 132 131 -116 0
w 132 -131 116 1
w 132 -131 -116 0
w 133 132 117 0
w 133 132 -117 0
w 133 -132 117 1
w 133 -132 -117 0
w 134 133 118 0.0573318
w 134 133 -118 0.623403
w 134 -133 118 0.644417
w 134 -133 -118 0.515548
w 135 134 119 1
w 135 134 -119 0
w 135 -134 119 1
w 135 -134 -119 1
w 136 135 120 0.158514
w 136 135 -120 0.521922
w 136 -135 120 0.809469
w 136 -135 -120 0.13233
w 137 136 121 0.383109
w 137 136 -121 0.268066
w 137 -136 121 0.623129
w 137 -136 -121 0.297038
w 138 137 122 1
w 138 137 -122 1
w 138 -137 122 1
w 138 -137 -122 0
w 139 138 123 0
w 139 138 -123 0
w 139 -138 123 0
w 139 -138 -123 1
w 140 139 124 0
w 140 139 -124 1
w 140 -139 124 1
w 140 -139 -124 1
w 141 140 125 1
w 141 140 -125 0
w 141 -140 125 1
w 141 -140 -125 0
w 142 141 126 0.805403
w 142 141 -126 0.549993
w 142 -141 126 0.503154
w 142 -141 -126 0.937733
w 143 142 127 0
w 143 142 -127 1
w 143 -142 127 0
w 143 -142 -127 0
w 144 143 128 0.86508
w 144 143 -128 0.237451
w 144 -143 128 0.0635694
w 144 -143 -128 0.507259
w 145 129 0.936504
w 145 -129 0.00638917
w 146 145 130 0.510537
w 146 145 -130 0.437111
w 146 -145 130 0.0945522
w 146 -145 -130 0.141901
w 147 146 131 1
w 147 146 -131 0
w 147 -146 131 1
w 147 -146 -131 0
w 148 147 132 0
w 148 147 -132 0
w 148 -147 132 1
w 148 -147 -132 1
w 149 148 133 0.596156
w 149 148 -133 0.0651137
w 149 -148 133 0.157748
w 149 -148 -133 0.48242
w 150 149 134 0
w 150 149 -134 1
w 150 -149 134 1
w 150 -149 -134 0
w 151 150 135 0.912081
w 151 150 -135 0.632452
w 151 -150 135 0.419601
w 151 -150 -135 0.848586
w 152 151 136 0.352579
w 152 151 -136 0.359123
w 152 -151 136 0.0759528
w 152 -151 -136 0.447131
w 153 152 137 0.567189
w 153 152 -137 0.347675
w 153 -152 137 0.789838
w 153 -152 -137 0.242277
w 154 153 138 1
w 154 153 -138 0
w 154 -153 138 1
w 154 -153 -138 0
w 155 154 139 0.255152
w 155 154 -139 0.878313
w 155 -154 139 0.75675
w 155 -154 -139 0.4129
w 156 155 140 1
w 156 155 -140 1
w 156 -155 140 0
w 156 -155 -140 1
w 157 156 141 0.929626
w 157 156 -141 0.788256
w 157 -156 141 0.43066
w 157 -156 -141 0.349227
w 158 157 142 0.0695016
w 158 157 -142 0.701806
w 158 -157 142 0.995964
w 158 -157 -142 0.145454
w 159 158 143 1
w 159 158 -143 1
w 159 -158 143 1
w 159 -158 -143 0
w 160 159 144 0.944735
w 160 159 -144 0.475982
w 160 -159 144 0.519175
w 160 -159 -144 0.521376
w 161 145 0.210812
w 161 -145 0.776527
w 162 161 146 0.967561
w 162 161 -146 0.189427
w 162 -161 146 0.997185
w 162 -161 -146 0.995223
w 163 162 147 0.0236388
w 163 162 -147 0.871398
w 163 -162 147 0.660648
w 163 -162 -147 0.953264
w 164 163 148 0.091308
w 164 163 -148 0.302491
w 164 -163 148 0.296495
w 164 -163 -148 0.16081
w 165 164 149 1
w 165 164 -149 0
w 165 -164 149 1
w 165 -164 -149 1
w 166 165 150 0
w 166 165 -150 1
w 166 -165 150 1
w 166 -165 -150 1
w 167 166 151 0.493003
w 167 166 -151 0.115958
w 167 -166 151 0.310394
w 167 -166 -151 0.703814
w 168 167 152 0.946846
w 168 167 -152 0.671375
w 168 -167 152 0.0819124
w 168 -167 -152 0.94403
w 169 168 153 0.944353
w 169 168 -153 0.967669
w 169 -168 153 0.537996
w 169 -168 -153 0.605001
w 170 169 154 0.19765
w 170 169 -154 0.696309
w 170 -169 154 0.223425
w 170 -169 -154 0.494144
w 171 170 155 0.227722
w 171 170 -155 0.786603
w 171 -170 155 0.163382
w 171 -170 -155 0.380957
w 172 171 156 0.182289
w 172 171 -156 0.0308044
w 172 -171 156 0.652324
w 172 -171 -156 0.156116
w 173 172 157 0.204579
w 173 172 -157 0.649119
w 173 -172 157 0.741345
w 173 -172 -157 0.514973
w 174 173 158 1
w 174 173 -158 0
w 174 -173 158 0
w 174 -173 -158 0
w 175 174 159 0
w 175 174 -159 0
w 175 -174 159 0
w 175 -174 -159 1
w 176 175 160 0
w 176 175 -160 0
w 176 -175 160 1
w 176 -175 -160 1
w 177 161 0.818524
w 177 -161 0.745599
w 178 177 162 0.981907
w 178 177 -162 0.126556
w 178 -177 162 0.283351
w 178 -177 -162 0.164196
w 179 178 163 0
w 179 178 -163 0
w 179 -178 163 0
w 179 -178 -163 1
w 180 179 164 0.524092
w 180 179 -164 0.655227
w 180 -179 164 0.322364
w 180 -179 -164 0.157922
w 181 180 165 0
w 181 180 -165 1
w 181 -180 165 0
w 181 -180 -165 0
w 182 181 166 0.896413
w 182 181 -166 0.266483
w 182 -181 166 0.798856
w 182 -181 -166 0.190865
w 183 182 167 0.760261
w 183 182 -167 0.708741
w 183 -182 167 0.613734
w 183 -182 -167 0.578785
w 184 183 168 0
w 184 183 -168 1
w 184 -183 168 0
w 184 -183 -168 1
w 185 184 169 0.738256
w 185 184 -169 0.54006
w 185 -184 169 0.0451997
w 185 -184 -169 0.521003
w 186 185 170 0.0146308
w 186 185 -170 0.0450949
w 186 -185 170 0.335541
w 186 -185 -170 0.336995
w 187 186 171 1
w 187 186 -171 1
w 187 -186 171 0
w 187 -186 -171 1
w 188 187 172 0.61044
w 188 187 -172 0.871894
w 188 -187 172 0.987731
w 188 -187 -172 0.409295
w 189 188 173 1
w 189 188 -173 0
w 189 -188 173 0
w 189 -188 -173 1
w 190 189 174 0.22584
w 190 189 -174 0.615536
w 190 -189 174 0.309033
w 190 -189 -174 0.806736
w 191 190 175 1
w 191 190 -175 0
w 191 -190 175 0
w 191 -190 -175 0
w 192 191 176 1
w 192 191 -176 0
w 192 -191 176 1
w 192 -191 -176 1
w 193 177 1
w 193 -177 0
w 194 193 178 1
w 194 193 -178 1
w 194 -193 178 0
w 194 -193 -178 0
w 195 194 179 0
w 195 194 -179 1
w 195 -194 179 1
w 195 -194 -179 0
w 196 195 180 0.580079
w 196 195 -180 0.910053
w 196 -195 180 0.79866
w 196 -195 -180 0.32842
w 197 196 181 0
w 197 196 -181 1
w 197 -196 181 0
w 197 -196 -181 1
w 198 197 182 0.48762
w 198 197 -182 0.394096
w 198 -197 182 0.750495
w 198 -197 -182 0.553615
w 199 198 183 0.844247
w 199 198 -183 0.664705
w 199 -198 183 0.610225
w 199 -198 -183 0.274993
w 200 199 184 0.838645
w 200 199 -184 0.389407
w 200 -199 184 0.369598
w 200 -199 -184 0.0425467
w 201 200 185 1
w 201 200 -185 1
w 201 -200 185 1
w 201 -200 -185 0
w 202 201 186 1
w 202 201 -186 0
w 202 -201 186 0
w 202 -201 -186 0
w 203 202 187 0
w 203 202 -187 1
w 203 -202 187 1
w 203 -202 -187 1
w 204 203 188 0.733088
w 204 203 -188 0.793687
w 204 -203 188 0.74917
w 204 -203 -188 0.286703
w 205 204 189 0.593417
w 205 204 -189 0.951408
w 205 -204 189 0.238302
w 205 -204 -189 0.86841
w 206 205 190 0.0769468
w 206 205 -190 0.257817
w 206 -205 190 0.299818
w 206 -205 -190 0.119493
w 207 206 191 0
w 207 206 -191 1
w 207 -206 191 0
w 207 -206 -191 0
w 208 207 192 0
w 208 207 -192 0
w 208 -207 192 1
w 208 -207 -192 0
w 209 193 0.964517
w 209 -193 0.200717
w 210 209 194 0.209985
w 210 209 -194 0.600308
w 210 -209 194 0.829236
w 210 -209 -194 0.943073
w 211 210 195 0
w 211 210 -195 0
w 211 -210 195 1
w 211 -210 -195 0
w 212 211 196 1
w 212 211 -196 1
w 212 -211 196 1
w 212 -211 -196 0
w 213 212 197 1
w 213 212 -197 0
w 213 -212 197 0
w 213 -212 -197 1
w 214 213 198 0.312281
w 214 213 -198 0.533854
w 214 -213 198 0.189378
w 214 -213 -198 0.396245
w 215 214 199 0
w 215 214 -199 0
w 215 -214 199 1
w 215 -214 -199 0
w 216 215 200 1
w 216 215 -200 0
w 216 -215 200 1
w 216 -215 -200 1
w 217 216 201 0.0265081
w 217 216 -201 0.0887352
w 217 -216 201 0.198408
w 217 -216 -201 0.0485797
w 218 217 202 1
w 218 217 -202 1
w 218 -217 202 1
w 218 -217 -202 0
w 219 218 203 0.598842
w 219 218 -203 0.902218
w 219 -218 203 0.103086
w 219 -218 -203 0.379778
w 220 219 204 0.797734
w 220 219 -204 0.692059
w 220 -219 204 0.517937
w 220 -219 -204 0.987113
w 221 220 205 1
w 221 220 -205 0
w 221 -220 205 1
w 221 -220 -205 0
w 222 221 206 0.951998
w 222 221 -206 0.396831
w 222 -221 206 0.679301
w 222 -221 -206 0.584511
w 223 222 207 0.647933
w 223 222 -207 0.61102
w 223 -222 207 0.995895
w 223 -222 -207 0.846342
w 224 223 208 0.256453
w 224 223 -208 0.225934
w 224 -223 208 0.968552
w 224 -223 -208 0.557245
w 225 209 0.614825
w 225 -209 0.156086
w 226 225 210 0.717911
w 226 225 -210 0.535864
w 226 -225 210 0.603231
w 226 -225 -210 0.515645
w 227 226 211 1
w 227 226 -211 0
w 227 -226 211 1
w 227 -226 -211 1
w 228 227 212 1
w 228 227 -212 1
w 228 -227 212 0
w 228 -227 -212 1
w 229 228 213 0.772528
w 229 228 -213 0.00610168
w 229 -228 213 0.321903
w 229 -228 -213 0.383548
w 230 229 214 1
w 230 229 -214 1
w 230 -229 214 0
w 230 -229 -214 1
w 231 230 215 0.111109
w 231 230 -215 0.626524
w 231 -230 215 0.971781
w 231 -230 -215 0.730257
w 232 231 216 0
w 232 231 -216 1
w 232 -231 216 0
w 232 -231 -216 0
w 233 232 217 1
w 233 232 -217 1
w 233 -232 217 0
w 233 -232 -217 0
w 234 233 218 1
w 234 233 -218 1
w 234 -233 218 0
w 234 -233 -218 0
w 235 234 219 0
w 235 234 -219 0
w 235 -234 219 0
w 235 -234 -219 1
w 236 235 220 0.675054
w 236 235 -220 0.50863
w 236 -235 220 0.256727
w 236 -235 -220 0.686753
w 237 236 221 0
w 237 236 -221 1
w 237 -236 221 1
w 237 -236 -221 1
w 238 237 222 0.803751
w 238 237 -222 0.431581
w 238 -237 222 0.51779
w 238 -237 -222 0.539318
w 239 238 223 0.880626
w 239 238 -223 0.591112
w 239 -238 223 0.327266
w 239 -238 -223 0.58439
w 240 239 224 0.470406
w 240 239 -224 0.282821
w 240 -239 224 0.354756
w 240 -239 -224 0.712489
w 241 225 0.603114
w 241 -225 0.960673
w 242 241 226 0
w 242 241 -226 1
w 242 -241 226 1
w 242 -241 -226 0
w 243 242 227 0.468801
w 243 242 -227 0.596827
w 243 -242 227 0.043809
w 243 -242 -227 0.836637
w 244 243 228 0.339915
w 244 243 -228 0.93473
w 244 -243 228 0.567815
w 244 -243 -228 0.143665
w 245 244 229 0
w 245 244 -229 1
w 245 -244 229 1
w 245 -244 -229 0
w 246 245 230 1
w 246 245 -230 1
w 246 -245 230 1
w 246 -245 -230 0
w 247 246 231 0.507777
w 247 246 -231 0.762709
w 247 -246 231 0.488664
w 247 -246 -231 0.110891
w 248 247 232 0.83819
w 248 247 -232 0.345912
w 248 -247 232 0.934236
w 248 -247 -232 0.0502639
w 249 248 233 0
w 249 248 -233 1
w 249 -248 233 0
w 249 -248 -233 0
w 250 249 234 1
w 250 249 -234 0
w 250 -249 234 1
w 250 -249 -234 1
w 251 250 235 0
w 251 250 -235 1
w 251 -250 235 1
w 251 -250 -235 1
w 252 251 236 0
w 252 251 -236 0
w 252 -251 236 1
w 252 -251 -236 0
w 253 252 237 0.76663
w 253 252 -237 0.798987
w 253 -252 237 0.302036
w 253 -252 -237 0.255294
w 254 253 238 0.0254183
w 254 253 -238 0.0934836
w 254 -253 238 0.255791
w 254 -253 -238 0.959654
w 255 254 239 1
w 255 254 -239 1
w 255 -254 239 0
w 255 -254 -239 1
w 256 255 240 0
w 256 255 -240 0
w 256 -255 240 0
w 256 -255 -240 1